 &CONTROL 
    calculation = 'scf' 
    verbosity   = 'low'  
    wf_collect  = .false. 
    outdir      = './' 
    prefix      = 'pwscf' 
    pseudo_dir  = './' 
    disk_io      = 'none'
 / 
 &SYSTEM 
    ibrav = 0 
    nat   = 192 
    ntyp  = 2 
      ecutwfc = 47 
      ecutrho = 323 
 / 
 &ELECTRONS 
    scf_must_converge = .true. 
    electron_maxstep  = 100 
    conv_thr          = 1.0d-6 
    mixing_mode       = 'local-TF' 
    mixing_beta       = 0.7 
    diagonalization   = 'david' 
 / 
ATOMIC_SPECIES 
  H    1.008   H.pbe-kjpaw_psl.1.0.0.UPF   ! 	 46.Ry	 221.Ry
  O   15.999   O.pbe-n-kjpaw_psl.1.0.0.UPF ! 	 47.Ry	 323.Ry
 
K_POINTS gamma 
 
CELL_PARAMETERS angstrom 
12.41380000  0.00000000  0.00000000
 0.00000000 12.41380000  0.00000000
 0.00000000  0.00000000 12.41380000
 
ATOMIC_POSITIONS angstrom 
  O  12.23532200   1.37664200  10.86988000 
  O   6.44539000   3.70694000   8.65079400 
  O   0.08597700   2.18132200   8.27666300 
  O  12.05255400   2.67136600   2.14719900 
  O  12.25003600   4.19093000  12.09201400 
  O   7.18742200   0.95906200   4.73346900 
  O   8.34645700   7.21004000   4.66764400 
  O  12.36154600  11.52787500   8.10688700 
  O   3.29998400   4.44081600   9.19327500 
  O   2.85582900   3.75990900   6.55281500 
  O   1.39249400   6.36275300   0.58617200 
  O   1.85864500   8.69401300   2.06873800 
  O   3.77023100  12.09451900   8.65218300 
  O   6.43250800   3.66982800   2.77241800 
  O   1.99872400   1.82021700   4.87644000 
  O   8.24858100   2.40473000   6.93130300 
  O   5.75381400   3.36002900  12.46153400 
  O  11.32221200   5.64923900   2.23679800 
  O   4.27731800   2.11395600  10.59080800 
  O   5.40501500   3.34924700   5.48470200 
  O   6.49327800  11.86995800   0.68491200 
  O   3.27525000   2.34657600   2.42524100 
  O   7.98100300   6.35251200   7.50797000 
  O   5.98599000   6.51285400  12.19464800 
  O  10.63671400  11.85687200  12.20954000 
  O   9.31228300   3.67038400   3.50859400 
  O   1.10688500   5.83030100   6.63869500 
  O   8.00800700   3.32636300  10.86981800 
  O  12.40300000   9.68740500  11.76190100 
  O   4.21978200   7.08531500   8.15347000 
  O   3.78155700   8.20382100  11.56327200 
  O  11.08889800   4.53208100   7.80947500 
  O  10.38754800   8.40889000   1.01788200 
  O   1.97901600   6.41809100  10.37415900 
  O   4.66054700   0.54966600   5.61740300 
  O   8.74588000  12.25625700   8.08938300 
  O   2.66204100  10.48989000   0.09298000 
  O   7.24166100  10.47181500   4.22694600 
  O   2.27682700   0.27664700  10.81041700 
  O   8.88773300   0.94687700   1.33388500 
  O   1.94355400   8.08855200   7.56765000 
  O   9.66794200   8.05675900   9.86884700 
  O  10.90549100   8.33963800   6.48478200 
  O   3.50773300   4.86240200   1.55743900 
  O   8.01045700   8.64284600  12.05596900 
  O   8.37444600  10.03593200   6.69030900 
  O   5.63524700   6.07687500   5.56399300 
  O  11.72843400   1.60190600   5.07947500 
  O   9.77113400   9.81411400   3.54870300 
  O   3.94435500  10.56345000   4.68753600 
  O   0.89035700   6.38228700   4.06580600 
  O   6.86244700   6.42518200   2.48820200 
  O   3.81396300   6.59512200   3.76264900 
  O   6.56244800   8.29546300   8.80718200 
  O   9.80945500   0.14332500   3.88655300 
  O   4.11707400  11.66122500   2.22167900 
  O   5.29531700   8.73556100   2.76318300 
  O   9.97199900   5.37933900   5.34037800 
  O  12.25470800   8.64387400   3.95711600 
  O   2.34427400  10.76127400   6.82916200 
  O   7.01341600   0.64348800  10.51879700 
  O   5.15234900  10.23362400  10.35938800 
  O  11.18427800   5.88406400  10.29827900 
  O  12.25233500   8.97414200   9.07083100 
  H  12.41513900   2.23312500  11.25761100 
  H  11.92247600   1.57379900   9.98699400 
  H   5.60819200   3.37154300   8.97148200 
  H   6.73122600   3.06085100   8.00496200 
  H  -0.16920500   1.56559400   7.58964500 
  H  -0.45544000   2.95477100   8.11893900 
  H  12.12516800   2.82646300   1.20544300 
  H  12.88882800   2.96976100   2.50474500 
  H  11.55325500   4.38661300  11.46556600 
  H  12.81828100   4.96080800  12.06715100 
  H   7.04949500   1.77234400   4.24789800 
  H   6.35301900   0.79814500   5.17404700 
  H   7.78185000   7.38485200   5.42056600 
  H   9.10320300   6.75401700   5.03589800 
  H  12.77123200  11.78864500   8.93174400 
  H  12.01803500  10.65065200   8.27633400 
  H   3.55724500   3.79252900   9.84884600 
  H   2.54384400   4.88410200   9.57795800 
  H   2.32023500   4.52125000   6.32981300 
  H   2.87212800   3.74996300   7.50982400 
  H   1.20968500   7.12139100   1.14050100 
  H   2.23888500   6.03880100   0.89424500 
  H   2.76310900   8.85635300   2.33673500 
  H   1.32937900   9.04736900   2.78375500 
  H   4.31563900  11.53338800   9.20344900 
  H   3.09874200  12.43304300   9.24441200 
  H   5.98736900   3.44897400   3.59053000 
  H   5.81309600   3.41934400   2.08698500 
  H   1.05712600   1.67534400   4.96937900 
  H   2.24849600   2.29211900   5.67089200 
  H   8.50826400   1.65333700   7.46441100 
  H   8.06601500   2.03459700   6.06764600 
  H   5.19783500   2.91554200  11.82157200 
  H   6.63090000   3.32998100  12.07937100 
  H  10.78898600   6.43667200   2.12793300 
  H  11.65792300   5.46360200   1.35983200 
  H   3.54447600   1.63495800  10.97776500 
  H   4.75577000   1.45505400  10.08765500 
  H   4.46537100   3.37545900   5.66529400 
  H   5.68266300   4.26443000   5.52449800 
  H   6.17481500  11.77867600   1.58295400 
  H   5.71364000  12.08992400   0.17499900 
  H   3.47607600   1.49870800   2.02898300 
  H   2.73022900   2.13429500   3.18294900 
  H   7.11962400   5.93645000   7.47403000 
  H   8.53649200   5.79940500   6.95866500 
  H   5.90949900   5.71747700  11.66762100 
  H   6.12540200   6.19675800  13.08733000 
  H  11.20349900  12.51353600  11.80484400 
  H  10.26093000  12.30015300  12.97014500 
  H   9.98503600   3.92768500   2.87817200 
  H   8.54558400   3.46832900   2.97233100 
  H   1.39988200   6.62009200   7.09324600 
  H   0.96356100   6.11252300   5.73534500 
  H   8.06736300   3.67400200   9.97995500 
  H   8.00073700   2.37595900  10.75619000 
  H  11.82162900  10.40251000  12.02048200 
  H  12.20685400   8.98324200  12.37989200 
  H   3.46147300   7.60648500   7.88968800 
  H   3.84447800   6.30471100   8.56094600 
  H   3.17988400   7.58561400  11.14849400 
  H   4.40195700   7.65203000  12.03957300 
  H  11.57377700   5.05321100   7.16951500 
  H  10.34207600   4.18608300   7.32083100 
  H  10.06564000   8.91919400   1.76098100 
  H   9.62958500   8.32249900   0.43972900 
  H   1.39630200   6.54607900   9.62563000 
  H   1.40551600   6.47975900  11.13804900 
  H   4.02400800   1.23251800   5.40582800 
  H   4.73685800   0.57988100   6.57107700 
  H   9.45229300  12.31338100   8.73277200 
  H   8.97655900  11.50278800   7.54596500 
  H   1.83470100  10.01231100   0.15346200 
  H   3.29519700   9.83640300  -0.20417500 
  H   7.05672400  11.40170200   4.09526400 
  H   6.49903800  10.02028700   3.82586500 
  H   1.36554100   0.48733800  11.01388700 
  H   2.50159100  -0.42813100  11.41787100 
  H   8.64427900   1.81236200   1.00540900 
  H   8.14267400   0.38803000   1.11295500 
  H   1.27265900   8.36506300   8.19188800 
  H   2.14248500   8.87776800   7.06386700 
  H   8.96149300   7.82619200   9.26552300 
  H   9.22710200   8.48765400  10.60111800 
  H  10.15014400   7.75893400   6.39276800 
  H  10.59608200   9.18798800   6.16729000 
  H   3.46310600   4.09618800   2.12941400 
  H   3.91946100   4.53980100   0.75579100 
  H   7.41899800   9.39495900  12.02887600 
  H   7.43041300   7.88309500  12.10654600 
  H   7.97290500  10.22033400   5.84119600 
  H   7.67511100   9.63149800   7.20372500 
  H   5.33244600   6.38133600   6.41947300 
  H   5.00002500   6.43418600   4.94346600 
  H  11.57507800   2.27116700   4.41254000 
  H  11.21980200   0.84703000   4.78335700 
  H   8.86534200   9.72151600   3.84399800 
  H  10.00073200  10.71928500   3.75889800 
  H   3.18619600  10.47639700   5.26533300 
  H   4.40733100  11.33512800   5.01372300 
  H   0.55818700   7.25593600   3.85933100 
  H   0.34167200   5.78938300   3.55234600 
  H   7.45993300   6.52604900   3.22919300 
  H   6.69622800   5.48373900   2.44037200 
  H   3.86487200   6.31300700   2.84938500 
  H   2.87641900   6.62120100   3.95386200 
  H   5.63152900   8.07914500   8.75399700 
  H   7.00329600   7.56824500   8.36782200 
  H   9.61541300   0.52790200   3.03175500 
  H   8.96298500   0.10936600   4.33216200 
  H   3.82585400  11.13918200   1.47408700 
  H   4.06398800  11.06323200   2.96721100 
  H   5.78439100   7.91455800   2.70848600 
  H   4.78046100   8.65516700   3.56611000 
  H  10.88065900   5.44466400   5.04660700 
  H   9.59333100   4.68799100   4.79735000 
  H  11.56231700   8.96013400   3.37676500 
  H  11.92608400   8.81694800   4.83932000 
  H   2.85687400  11.29798100   7.43366000 
  H   1.49233200  11.19551700   6.78603300 
  H   7.14582000   0.09020000   9.74900900 
  H   7.22727500   0.07769000  11.26066500 
  H   4.66202100   9.53843000  10.79815500 
  H   5.99453700   9.83347200  10.14298500 
  H  10.54429900   6.59585700  10.30144500 
  H  11.28175000   5.65308200   9.37449400 
  H  12.10302000   8.84116400  10.00691600 
  H  11.49159200   8.57622100   8.64755700 
